# set lj potentials of each particle species
pair_style	lj/cut 2.5 

variable 	rcut equal 2.5+${RColloid}

pair_coeff      * * 1.0 1.0 2.5
pair_coeff 	2 3 4.0 ${RColloid} ${rcut}
pair_coeff      1 3 1.0 ${RColloid} ${rcut}

mass 		* 1.0

pair_modify	mix arithmetic
pair_modify 	shift yes
pair_modify     tail no

pair_write 	2 3 500 r 1.0 6 potential.dat LJ
