# step interval for outputs
variable	myThermo equal 10000
variable	myRestart equal 1000000
variable        myImage equal 1000
variable        myDumpV equal 10000
variable        myDump equal 10000
variable 	myRun equal 5000000


variable        myStepsEach equal 1
variable        myLoop loop 100

#Specific Variables 

variable 	R_h equal 3

variable        force equal 0.5

units		lj	
atom_style	atomic
boundary p p p

read_restart ../Equilibration/particle/restart.210000

#read_data simulation.data

##########################################################

##########################################################

##########################################################
#setting interaction parameter
include ../in.interaction
##########################################################

# set parameters of Varlet neighbor list
neighbor        0.5 bin
neigh_modify	every 1 delay 10 check yes

##########################################################
#setting geometry
include ../in.geom

region		rColloid sphere ${lhalfx}  ${lhalfy} ${lhalfz} ${R_h}

##########################################################

# set time step
reset_timestep  0
timestep	0.005
run_style	verlet

##############################################################
# set display format for thermodynamic quantities
thermo	        1 #${myThermo}
thermo_modify	format float %25.15f lost warn

##########################################################


##########################################################
#setting computation
include in.computations
include in.velprof
include in.conprof
##########################################################



fix              3 gSol nvt temp 1.0 1.0 1.0

#write_data simulation.data nocoeff
#run 0


fix      colloid  gCol rigid single

#Definition of the forces
##########################################################
fix     fSolu gSolu addforce ${force} 0.0 0.0
fix     fSolv gSolv addforce -${force} 0.0 0.0
fix     fCol gCol addforce  ${forcem} 0 0 




##########################################################
# set output
thermo_style custom step temp press
fix cal1 all ave/time 1 1000 1000  v_vx_Solv v_vx_Solu v_vx_Sol v_cSolu v_cSolv file "./vdata.dat"

#Trajectory output
##########################################################

dump Traj all custom 500 traj.atom id type x y z ix iy iz vx vy vz

shell           mkdir particle
restart         ${myRestart} ./particle/restart.*

label loop
run             ${myStepsEach}

variable zDis equal -(xcm(gCol,z)-v_zo)
variable yDis equal -(xcm(gCol,y)-v_yo)
variable xDis equal -(xcm(gCol,x)-v_xo)

displace_atoms all move v_xDis v_yDis v_zDis units box
next myLoop
jump SELF loop

fix recentering gCol recenter 0.5 0.5 0.5 units fraction shift all

run ${myRun}
