# set lj potentials of each particle species
pair_style	lj/cut 2.5 

variable 	rcut equal 2.5

pair_coeff      * * 1.0 1.0 2.5

mass 		* 1.0

pair_modify	mix arithmetic
pair_modify 	shift yes
pair_modify     tail no

