
# step interval for outputs

variable 	forcm equal -0.1

variable	myThermo equal 1e2
variable        myDump equal 2e4
variable        myRun equal 1e8


variable 	RColloid equal 3.23 

units		lj	
atom_style	atomic
boundary 	p p p

read_data 	../0.Initialisation/equil.dat

##########################################################
#setting interaction parameter
include 	../in.interaction
##########################################################

# set parameters of Varlet neighbor list
neighbor        0.5 bin
neigh_modify	every 1 delay 10 check yes

##########################################################
#setting geometry
include  	in.geom
##########################################################

# set time step
reset_timestep  0
timestep	0.005
run_style	verlet

# set time steps of recording restart file
#restart		${myRestart} ./particle/restart.*


##############################################################
# set display format for thermodynamic quantities
thermo	        ${myThermo}
thermo_modify	format float %25.15f lost warn

##########################################################


include 	in.computations

#Definition of the forces
##########################################################
fix 		adfSol gSol addforce ${fSol} 0.0 0.0
fix 		adfm gMon addforce ${forcm} 0.0 0.0
##########################################################

##########################################################
#setting computation
include	 	in.velprof
##########################################################

fix              3 all nvt temp 1.0 1.0 1.0

##########################################################
# set output
thermo_style 	custom step  v_vxB_Solu v_vxB_Solv v_vxB_Sol 
fix pos all ave/time 1 1 100 c_comCol[1] c_comCol[2] c_comCol[3] file "./pos.dat"

fix 		cal1 all ave/time ${myThermo} 1 ${myThermo} v_vxB_Solu v_vxB_Solv  v_vxB_Sol v_vx_Sol  v_vx_Col v_vx_relative file "./vdata.dat"

##########################################################
#Trajectory output
##########################################################
fix 		Colloid_recenter  gMon recenter 0.5 0.5 0.5  units fraction shift all


##########################################################


run ${myRun} 
