
# Geometry variables
variable        Lx equal 12 #In lattice units 
variable 	Ly equal 12
variable        Lz equal 18


# Run variables 
variable        myThermo equal 1e3
variable 	myDump equal 1e4
variable 	myEquil equal 1e4
variable 	myProd equal 3e5
variable 	myTraj equal 1e3



# Systemp Parameters
variable        RColloid equal 3.23 
variable 	Temp equal 1.0
variable 	lattice_param equal 0.8 
variable 	lattice_spacing equal (4/${lattice_param})^(1/3)


#GCMC 	Parameters
variable 	muf equal -2.2178892530117262
variable 	mus equal -2.2178892530117262
variable        nMoveAtt equal 100
variable        nExcAtt equal 100
variable        MCdisp equal 1



timestep        0.05

boundary 	p p p

units 		lj
atom_style      atomic
neighbor        0.5 bin
neigh_modify    every 1 delay 10 check yes


lattice         fcc ${lattice_param}

region          box block 0 ${Lx} 0 ${Ly} 0 ${Lz}
create_box      3 box




include 	in.geom
include		../in.interaction
#include 	in.flux


# Defining the colloid
create_atoms    3 region rColloid
group 		gMon type 3
fix             keepColloid gMon setforce 0 0 0


group 		gSolv type 1
group 		gSolu type 2

group 		gSol union gSolu gSolv


dump            dump_all all custom ${myTraj} all.atom id type x y z ix iy iz



include 	in.computations

fix             Solv gSolv gcmc 1 ${nExcAtt} ${nMoveAtt} 1 123423 ${Temp} ${muf} ${MCdisp} region rnoColloid

fix             Solu gSolu gcmc 1 ${nExcAtt} ${nMoveAtt} 2 214223 ${Temp} ${mus} ${MCdisp} region rnoColloid

#Checking that the temperatures are right
compute         TSolv gSolv temp
compute         TSolu gSolu temp
compute_modify  TSolv dynamic yes
compute_modify  TSolu dynamic yes

thermo		20
thermo_style    custom step temp c_TSolv c_TSolu v_cSolv v_cSolu v_nBSolv v_nBSolu v_nBSol


fix             cal1 all ave/time  1 ${myThermo} ${myThermo} v_cSolv v_cSolu v_nBSolv v_nBSolu v_nBSol file "./vdata_eq.dat"




run 		${myEquil}



include 	in.conprof


run 		${myProd}
#Saving the last configurations

print 		"Now I will save the configurations" 

write_data      equil.dat nocoeff
run             1
