#Test to evaluate the GCMC implementation
# The input parameter is the chemical potential as -v mu VALUE
# Type 1 is Solvent
# Type 2 is Solute
# Type 3 is colloid(obstacle)

variable 	Lx equal 20
variable 	myEquil equal 1e6
variable 	myProd  equal 1e5
variable 	myThermo equal 1e2
variable 	myDump equal 1e4
variable 	Temp equal 1.0 
variable 	RColloid equal 3.23

timestep        0.005

boundary 	p p p

units 		lj
atom_style      atomic
neighbor        0.5 bin
neigh_modify    every 1 delay 10 check yes


lattice 	fcc 0.8

region          box block 0 ${Lx} 0 ${Lx} 0 ${Lx} units box
create_box      2 box

create_atoms 	1 region box

# The center atom was defined taking a random atom far from the boundary
region      	rColloid sphere 16.2448 11.9698 11.1148 ${RColloid} units box


include	 	in.interaction
 
# Creating the colloid
group 		gMon region rColloid
set 		group gMon type 2


group		gSolv type 1


dump            dump_all all custom 100  traj.atom id type x y z ix iy iz

thermo          ${myThermo}

# To keep the colloid shape during minimization
fix 		keepColloid gMon setforce 0 0 0 

minimize 	1.0e-5 1.0e-6 1000 10000

unfix 		keepColloid

fix      	colloid  gMon rigid single reinit yes
variable 	xc_col equal xcm(gMon,x)
#fix		centerColloid gMon recenter NULL NULL 0.5 units fraction shift all 

fix 		ensemble gSolv nvt temp ${Temp} ${Temp} 0.1
 
thermo_style custom step temp etotal v_xc_col

run 		${myEquil}
