
# step interval for outputs

variable 	forc0 equal 0.06

variable	myThermo equal 1e2
variable	myRestart equal 1000000
variable        myDump equal 2e4

variable 	RColloid equal 3.23
variable        myRun equal 10^8

units		lj	
atom_style	atomic
boundary 	p p p

read_data 	../0.Initialisation/equil.dat

##########################################################
#setting interaction parameter
include 	../in.interaction
##########################################################

# set parameters of Varlet neighbor list
neighbor        0.5 bin
neigh_modify	every 1 delay 10 check yes

##########################################################
#setting geometry
include  	in.geom
##########################################################

# set time step
reset_timestep  0
timestep	0.005
run_style	verlet

# set time steps of recording restart file
#restart		${myRestart} ./particle/restart.*


##############################################################
# set display format for thermodynamic quantities
thermo	        ${myThermo}
thermo_modify	format float %25.15f lost warn

##########################################################

# Initialising the velocities of the system

velocity 	all set 0 0 0

##########################################################
#setting computation
include 	in.computations


##########################################################

fix              3 all nvt temp 1.0 1.0 1.0

##########################################################
# set output
thermo_style 	custom step c_comMon[1] c_comMon[2] c_comMon[3]  c_msd[4] v_twopoint v_fitslope

fix pos all ave/time 1 1 100 c_comMon[1] c_comMon[2] c_comMon[3] file "./pos.dat"


##########################################################
#Trajectory output
##########################################################

dump            dump_all all custom ${myDump} all.atom id type x y z ix iy iz vx 

##########################################################


run ${myRun} 
