
# step interval for outputs

variable 	forc0 equal 0.06

variable	myThermo equal 1000
variable	myRestart equal 1000000
variable        myImage equal 1000
variable        myDumpV equal 10000
variable        myDump equal 10000


variable        myRun equal 10^8

units		lj	
atom_style	atomic
boundary 	p p p

read_data 	../0.Initialisation/equil.dat

##########################################################
#setting interaction parameter
include 	../in.interaction
##########################################################

# set parameters of Varlet neighbor list
neighbor        0.5 bin
neigh_modify	every 1 delay 10 check yes

##########################################################
#setting geometry
include  	in.geom
##########################################################

# set time step
reset_timestep  0
timestep	0.005
run_style	verlet

# set time steps of recording restart file
#restart		${myRestart} ./particle/restart.*


##############################################################
# set display format for thermodynamic quantities
thermo	        ${myThermo}
thermo_modify	format float %25.15f lost warn

##########################################################

#Definition of the forces
##########################################################
fix 		adf0 gSolu addforce v_forc0 0.0 0.0
fix		adf1 gSolv addforce v_forc1 0.0 0.0

fix             colloid  gMon rigid single 
##########################################################

##########################################################
#setting computation
include 	in.computations
##########################################################

fix              3 gSol nvt temp 1.0 1.0 1.0

##########################################################
# set output
thermo_style 	custom step  v_Fbulk v_Fsol 

fix 		cal1 all ave/time 1 1000 1000  c_vx_sol v_vxB_Sol v_conc_bulk v_frac_bulk v_Fsol file "./vdata.dat"




##########################################################
#Trajectory output
##########################################################

dump            dump_all all custom 100 all.atom id type x y z ix iy iz
##########################################################

variable 	myLoop loop 100

label loop 
run             100

displace_atoms all move 0 0 2 units box


next myLoop 
jump SELF loop

